c Result of efficient AIG-to-CNF conversion using package CNF
p cnf 580 2141
2 548 549 -88 0
2 548 549 -3 0
-2 -548 0
-2 -549 0
-2 3 88 0
3 4 6 15 -52 0
3 4 6 -15 52 0
-3 -6 0
-3 15 52 0
-3 -4 0
-3 -15 -52 0
-4 550 553 554 5 0
4 -5 0
4 -554 0
4 -550 0
4 -553 0
-5 571 572 575 0
5 -571 0
5 -575 0
5 -572 0
-6 7 9 0
6 -7 0
6 -9 0
-7 555 556 557 8 0
7 -8 0
7 -557 0
7 -555 0
7 -556 0
-8 558 559 560 0
8 -558 0
8 -560 0
8 -559 0
-9 551 552 10 0
9 -10 0
9 -552 0
9 -551 0
-10 562 11 13 14 0
10 -562 0
10 -14 0
10 -13 0
10 -11 0
-11 565 566 570 12 0
11 -12 0
11 -570 0
11 -565 0
11 -566 0
-12 567 568 569 0
12 -567 0
12 -569 0
12 -568 0
-13 561 573 574 0
13 -561 0
13 -574 0
13 -573 0
-14 563 564 0
14 -563 0
14 -564 0
15 576 -16 0
-15 -576 0
-15 16 0
16 577 -17 0
-16 -577 0
-16 17 0
17 578 -18 0
-17 -578 0
-17 18 0
18 579 -19 0
-18 -579 0
-18 19 0
19 20 -51 0
19 -20 51 0
-19 -20 -51 0
-19 20 51 0
20 -517 -549 0
20 -517 -21 0
-20 517 0
-20 549 21 0
21 -518 -550 0
21 -518 -22 0
-21 518 0
-21 550 22 0
22 -519 -551 0
22 -519 -23 0
-22 519 0
-22 551 23 0
23 -520 -552 0
23 -520 -24 0
-23 520 0
-23 552 24 0
24 -521 -553 0
24 -521 -25 0
-24 521 0
-24 553 25 0
25 -522 -554 0
25 -522 -26 0
-25 522 0
-25 554 26 0
26 -523 -555 0
26 -523 -27 0
-26 523 0
-26 555 27 0
27 -524 -556 0
27 -524 -28 0
-27 524 0
-27 556 28 0
28 -525 -557 0
28 -525 -29 0
-28 525 0
-28 557 29 0
29 -526 -558 0
29 -526 -30 0
-29 526 0
-29 558 30 0
30 -527 -559 0
30 -527 -31 0
-30 527 0
-30 559 31 0
31 -528 -560 0
31 -528 -32 0
-31 528 0
-31 560 32 0
32 -529 -561 0
32 -529 -33 0
-32 529 0
-32 561 33 0
33 -530 -562 0
33 -530 -34 0
-33 530 0
-33 562 34 0
34 -531 -563 0
34 -531 -35 0
-34 531 0
-34 563 35 0
35 -532 -564 0
35 -532 -36 0
-35 532 0
-35 564 36 0
36 -533 -565 0
36 -533 -37 0
-36 533 0
-36 565 37 0
37 -534 -566 0
37 -534 -38 0
-37 534 0
-37 566 38 0
38 -535 -567 0
38 -535 -39 0
-38 535 0
-38 567 39 0
39 -536 -568 0
39 -536 -40 0
-39 536 0
-39 568 40 0
40 -537 -569 0
40 -537 -41 0
-40 537 0
-40 569 41 0
41 -538 -570 0
41 -538 -42 0
-41 538 0
-41 570 42 0
42 -539 -571 0
42 -539 -43 0
-42 539 0
-42 571 43 0
43 -540 -572 0
43 -540 -44 0
-43 540 0
-43 572 44 0
44 -541 -573 0
44 -541 -45 0
-44 541 0
-44 573 45 0
45 -542 -574 0
45 -542 -46 0
-45 542 0
-45 574 46 0
46 -543 -575 0
46 -543 -47 0
-46 543 0
-46 575 47 0
47 -544 -576 0
47 -544 -48 0
-47 544 0
-47 576 48 0
48 -545 -577 0
48 -545 -49 0
-48 545 0
-48 577 49 0
-49 546 0
-49 578 50 0
49 -546 -578 0
49 -546 -50 0
50 -547 -579 0
-50 547 0
-50 579 0
51 -516 548 0
-51 516 0
-51 -548 0
52 576 -53 0
-52 -576 0
-52 53 0
53 577 -54 0
-53 -577 0
-53 54 0
54 578 -55 0
-54 -578 0
-54 55 0
55 579 -56 0
-55 -579 0
-55 56 0
56 -57 87 0
56 57 -87 0
-56 57 87 0
-56 -57 -87 0
57 -517 -549 0
57 -549 -58 0
57 -517 -58 0
-57 517 58 0
-57 549 58 0
-57 517 549 0
58 -518 -550 0
58 -550 -59 0
58 -518 -59 0
-58 518 59 0
-58 550 59 0
-58 518 550 0
59 -519 -551 0
59 -551 -60 0
59 -519 -60 0
-59 519 60 0
-59 551 60 0
-59 519 551 0
60 -520 -552 0
60 -552 -61 0
60 -520 -61 0
-60 520 61 0
-60 552 61 0
-60 520 552 0
61 -521 -553 0
61 -553 -62 0
61 -521 -62 0
-61 521 62 0
-61 553 62 0
-61 521 553 0
62 -522 -554 0
62 -554 -63 0
62 -522 -63 0
-62 522 63 0
-62 554 63 0
-62 522 554 0
63 -523 -555 0
63 -555 -64 0
63 -523 -64 0
-63 523 64 0
-63 555 64 0
-63 523 555 0
64 -524 -556 0
64 -556 -65 0
64 -524 -65 0
-64 524 65 0
-64 556 65 0
-64 524 556 0
65 -525 -557 0
65 -557 -66 0
65 -525 -66 0
-65 525 66 0
-65 557 66 0
-65 525 557 0
66 -526 -558 0
66 -558 -67 0
66 -526 -67 0
-66 526 67 0
-66 558 67 0
-66 526 558 0
67 -527 -559 0
67 -559 -68 0
67 -527 -68 0
-67 527 68 0
-67 559 68 0
-67 527 559 0
68 -528 -560 0
68 -560 -69 0
68 -528 -69 0
-68 528 69 0
-68 560 69 0
-68 528 560 0
69 -529 -561 0
69 -561 -70 0
69 -529 -70 0
-69 529 70 0
-69 561 70 0
-69 529 561 0
70 -530 -562 0
70 -562 -71 0
70 -530 -71 0
-70 530 71 0
-70 562 71 0
-70 530 562 0
71 -531 -563 0
71 -563 -72 0
71 -531 -72 0
-71 531 72 0
-71 563 72 0
-71 531 563 0
72 -532 -564 0
72 -564 -73 0
72 -532 -73 0
-72 532 73 0
-72 564 73 0
-72 532 564 0
73 -533 -565 0
73 -565 -74 0
73 -533 -74 0
-73 533 74 0
-73 565 74 0
-73 533 565 0
74 -534 -566 0
74 -566 -75 0
74 -534 -75 0
-74 534 75 0
-74 566 75 0
-74 534 566 0
75 -535 -567 0
75 -567 -76 0
75 -535 -76 0
-75 535 76 0
-75 567 76 0
-75 535 567 0
76 -536 -568 0
76 -568 -77 0
76 -536 -77 0
-76 536 77 0
-76 568 77 0
-76 536 568 0
77 -537 -569 0
77 -569 -78 0
77 -537 -78 0
-77 537 78 0
-77 569 78 0
-77 537 569 0
78 -538 -570 0
78 -570 -79 0
78 -538 -79 0
-78 538 79 0
-78 570 79 0
-78 538 570 0
79 -539 -571 0
79 -571 -80 0
79 -539 -80 0
-79 539 80 0
-79 571 80 0
-79 539 571 0
80 -540 -572 0
80 -572 -81 0
80 -540 -81 0
-80 540 81 0
-80 572 81 0
-80 540 572 0
81 -541 -573 0
81 -573 -82 0
81 -541 -82 0
-81 541 82 0
-81 573 82 0
-81 541 573 0
82 -542 -574 0
82 -574 -83 0
82 -542 -83 0
-82 542 83 0
-82 574 83 0
-82 542 574 0
83 -543 -575 0
83 -575 -84 0
83 -543 -84 0
-83 543 84 0
-83 575 84 0
-83 543 575 0
84 -544 -576 0
84 -576 -85 0
84 -544 -85 0
-84 544 85 0
-84 576 85 0
-84 544 576 0
85 -545 -577 0
85 -577 -86 0
85 -545 -86 0
-85 545 86 0
-85 577 86 0
-85 545 577 0
86 -546 -578 0
86 -578 -50 0
86 -546 -50 0
-86 546 50 0
-86 578 50 0
-86 546 578 0
-87 -516 -548 0
-87 516 548 0
87 516 -548 0
87 -516 548 0
88 550 -109 0
88 550 -89 100 0
88 550 89 -100 0
-88 -550 0
-88 89 100 109 0
-88 -89 -100 109 0
89 -90 98 0
-89 90 0
-89 -98 0
90 576 -91 0
-90 -576 0
-90 91 0
91 577 -92 0
-91 -577 0
-91 92 0
92 -578 -18 0
92 578 -93 0
-92 578 93 0
-92 -578 18 0
93 -579 -96 0
93 579 -94 0
-93 579 94 0
-93 -579 96 0
-94 -22 -95 0
-94 22 95 0
94 22 -95 0
94 -22 95 0
95 -518 550 0
-95 518 0
-95 -550 0
-96 -21 -97 0
-96 21 97 0
96 21 -97 0
96 -21 97 0
97 -517 549 0
-97 517 0
-97 -549 0
-98 5 9 99 0
98 -5 0
98 -9 0
98 -99 0
-99 553 554 7 0
99 -7 0
99 -554 0
99 -553 0
100 98 -101 0
-100 -98 0
-100 101 0
101 576 -102 0
-101 -576 0
-101 102 0
102 577 -103 0
-102 -577 0
-102 103 0
103 -578 -55 0
103 578 -104 0
-103 578 104 0
-103 -578 55 0
104 -579 -107 0
104 579 -105 0
-104 579 105 0
-104 -579 107 0
-105 -59 -106 0
-105 59 106 0
105 59 -106 0
105 -59 106 0
106 518 -550 0
106 -518 550 0
-106 -518 -550 0
-106 518 550 0
-107 -58 -108 0
-107 58 108 0
107 58 -108 0
107 -58 108 0
108 517 -549 0
108 -517 549 0
-108 -517 -549 0
-108 517 549 0
109 551 -212 0
109 551 -128 0
109 551 -110 0
-109 -551 0
-109 110 128 212 0
110 552 111 114 -121 0
110 552 111 -114 121 0
-110 -111 0
-110 -114 -121 0
-110 -552 0
-110 114 121 0
-111 555 556 112 113 0
111 -555 0
111 -113 0
111 -112 0
111 -556 0
-112 553 554 0
112 -553 0
112 -554 0
-113 557 5 8 10 0
113 -557 0
113 -10 0
113 -8 0
113 -5 0
114 576 -115 0
-114 -576 0
-114 115 0
115 577 -116 0
-115 -577 0
-115 116 0
116 578 -117 0
116 -578 -120 0
-116 -578 120 0
-116 578 117 0
117 579 -118 0
117 -579 -94 0
-117 -579 94 0
-117 579 118 0
-118 -23 -119 0
-118 23 119 0
118 23 -119 0
118 -23 119 0
119 -519 551 0
-119 519 0
-119 -551 0
120 -579 -19 0
120 579 -96 0
-120 -579 19 0
-120 579 96 0
121 576 -122 0
-121 -576 0
-121 122 0
122 577 -123 0
-122 -577 0
-122 123 0
123 578 -124 0
123 -578 -127 0
-123 -578 127 0
-123 578 124 0
124 579 -125 0
124 -579 -105 0
-124 -579 105 0
-124 579 125 0
-125 -60 -126 0
-125 60 126 0
125 60 -126 0
125 -60 126 0
126 519 -551 0
126 -519 551 0
-126 -519 -551 0
-126 519 551 0
127 -579 -56 0
127 579 -107 0
-127 -579 56 0
-127 579 107 0
128 552 -129 170 211 0
128 552 129 -170 211 0
-128 -211 0
-128 -129 -170 0
-128 -552 0
-128 129 170 0
129 -15 -130 0
129 575 -130 0
-129 130 0
-129 -575 15 0
-130 575 -576 131 0
-130 575 576 147 0
130 -575 0
130 -576 -131 0
130 576 -147 0
131 577 -132 0
131 -577 -143 0
-131 -577 143 0
-131 577 132 0
132 578 -133 0
132 -578 -138 0
-132 -578 138 0
-132 578 133 0
133 -579 -136 0
133 579 -134 0
-133 579 134 0
-133 -579 136 0
-134 -28 -135 0
-134 28 135 0
134 28 -135 0
134 -28 135 0
135 -524 556 0
-135 524 0
-135 -556 0
-136 -27 -137 0
-136 27 137 0
136 27 -137 0
136 -27 137 0
137 -523 555 0
-137 523 0
-137 -555 0
138 -579 -141 0
138 579 -139 0
-138 579 139 0
-138 -579 141 0
-139 -26 -140 0
-139 26 140 0
139 26 -140 0
139 -26 140 0
140 -522 554 0
-140 522 0
-140 -554 0
-141 -25 -142 0
-141 25 142 0
141 25 -142 0
141 -25 142 0
142 -521 553 0
-142 521 0
-142 -553 0
143 -578 -93 0
143 578 -144 0
-143 578 144 0
-143 -578 93 0
144 579 -145 0
144 -579 -118 0
-144 -579 118 0
-144 579 145 0
-145 -24 -146 0
-145 24 146 0
145 24 -146 0
145 -24 146 0
146 -520 552 0
-146 520 0
-146 -552 0
147 577 -148 0
147 -577 -159 0
-147 -577 159 0
-147 577 148 0
148 578 -149 0
148 -578 -154 0
-148 -578 154 0
-148 578 149 0
149 -579 -152 0
149 579 -150 0
-149 579 150 0
-149 -579 152 0
-150 -36 -151 0
-150 36 151 0
150 36 -151 0
150 -36 151 0
151 -532 564 0
-151 532 0
-151 -564 0
-152 -35 -153 0
-152 35 153 0
152 35 -153 0
152 -35 153 0
153 -531 563 0
-153 531 0
-153 -563 0
154 -579 -157 0
154 579 -155 0
-154 579 155 0
-154 -579 157 0
-155 -34 -156 0
-155 34 156 0
155 34 -156 0
155 -34 156 0
156 -530 562 0
-156 530 0
-156 -562 0
-157 -33 -158 0
-157 33 158 0
157 33 -158 0
157 -33 158 0
158 -529 561 0
-158 529 0
-158 -561 0
159 578 -160 0
159 -578 -165 0
-159 -578 165 0
-159 578 160 0
160 -579 -163 0
160 579 -161 0
-160 579 161 0
-160 -579 163 0
-161 -32 -162 0
-161 32 162 0
161 32 -162 0
161 -32 162 0
162 -528 560 0
-162 528 0
-162 -560 0
-163 -31 -164 0
-163 31 164 0
163 31 -164 0
163 -31 164 0
164 -527 559 0
-164 527 0
-164 -559 0
165 -579 -168 0
165 579 -166 0
-165 579 166 0
-165 -579 168 0
-166 -30 -167 0
-166 30 167 0
166 30 -167 0
166 -30 167 0
167 -526 558 0
-167 526 0
-167 -558 0
-168 -29 -169 0
-168 29 169 0
168 29 -169 0
168 -29 169 0
169 -525 557 0
-169 525 0
-169 -557 0
170 -52 -171 0
170 575 -171 0
-170 171 0
-170 -575 52 0
-171 575 -576 172 0
-171 575 576 188 0
171 -575 0
171 -576 -172 0
171 576 -188 0
172 577 -173 0
172 -577 -184 0
-172 -577 184 0
-172 577 173 0
173 578 -174 0
173 -578 -179 0
-173 -578 179 0
-173 578 174 0
174 -579 -177 0
174 579 -175 0
-174 579 175 0
-174 -579 177 0
-175 -65 -176 0
-175 65 176 0
175 65 -176 0
175 -65 176 0
176 524 -556 0
176 -524 556 0
-176 -524 -556 0
-176 524 556 0
-177 -64 -178 0
-177 64 178 0
177 64 -178 0
177 -64 178 0
178 523 -555 0
178 -523 555 0
-178 -523 -555 0
-178 523 555 0
179 -579 -182 0
179 579 -180 0
-179 579 180 0
-179 -579 182 0
-180 -63 -181 0
-180 63 181 0
180 63 -181 0
180 -63 181 0
181 522 -554 0
181 -522 554 0
-181 -522 -554 0
-181 522 554 0
-182 -62 -183 0
-182 62 183 0
182 62 -183 0
182 -62 183 0
183 521 -553 0
183 -521 553 0
-183 -521 -553 0
-183 521 553 0
184 -578 -104 0
184 578 -185 0
-184 578 185 0
-184 -578 104 0
185 579 -186 0
185 -579 -125 0
-185 -579 125 0
-185 579 186 0
-186 -61 -187 0
-186 61 187 0
186 61 -187 0
186 -61 187 0
187 520 -552 0
187 -520 552 0
-187 -520 -552 0
-187 520 552 0
188 577 -189 0
188 -577 -200 0
-188 -577 200 0
-188 577 189 0
189 578 -190 0
189 -578 -195 0
-189 -578 195 0
-189 578 190 0
190 -579 -193 0
190 579 -191 0
-190 579 191 0
-190 -579 193 0
-191 -73 -192 0
-191 73 192 0
191 73 -192 0
191 -73 192 0
192 532 -564 0
192 -532 564 0
-192 -532 -564 0
-192 532 564 0
-193 -72 -194 0
-193 72 194 0
193 72 -194 0
193 -72 194 0
194 531 -563 0
194 -531 563 0
-194 -531 -563 0
-194 531 563 0
195 -579 -198 0
195 579 -196 0
-195 579 196 0
-195 -579 198 0
-196 -71 -197 0
-196 71 197 0
196 71 -197 0
196 -71 197 0
197 530 -562 0
197 -530 562 0
-197 -530 -562 0
-197 530 562 0
-198 -70 -199 0
-198 70 199 0
198 70 -199 0
198 -70 199 0
199 529 -561 0
199 -529 561 0
-199 -529 -561 0
-199 529 561 0
200 578 -201 0
200 -578 -206 0
-200 -578 206 0
-200 578 201 0
201 -579 -204 0
201 579 -202 0
-201 579 202 0
-201 -579 204 0
-202 -69 -203 0
-202 69 203 0
202 69 -203 0
202 -69 203 0
203 528 -560 0
203 -528 560 0
-203 -528 -560 0
-203 528 560 0
-204 -68 -205 0
-204 68 205 0
204 68 -205 0
204 -68 205 0
205 527 -559 0
205 -527 559 0
-205 -527 -559 0
-205 527 559 0
206 -579 -209 0
206 579 -207 0
-206 579 207 0
-206 -579 209 0
-207 -67 -208 0
-207 67 208 0
207 67 -208 0
207 -67 208 0
208 526 -558 0
208 -526 558 0
-208 -526 -558 0
-208 526 558 0
-209 -66 -210 0
-209 66 210 0
209 66 -210 0
209 -66 210 0
210 525 -557 0
210 -525 557 0
-210 -525 -557 0
-210 525 557 0
-211 571 572 10 99 0
211 -571 0
211 -99 0
211 -10 0
211 -572 0
212 552 -213 0
212 552 211 -310 0
-212 -552 0
-212 213 310 0
-212 -211 213 0
213 111 -288 0
213 111 -214 0
213 111 -254 0
-213 -111 0
-213 214 254 288 0
-214 215 243 245 247 0
-214 215 -243 -245 247 0
214 -247 0
214 -243 245 0
214 -215 0
214 243 -245 0
-215 216 241 242 0
-215 216 -241 -242 0
215 -216 0
215 -241 242 0
215 241 -242 0
-216 -217 -238 0
-216 226 235 0
-216 -217 235 0
-216 226 -238 0
216 217 -226 0
216 -235 238 0
217 576 -218 0
217 -576 -224 0
-217 -576 224 0
-217 576 218 0
218 577 -219 0
218 -577 -222 0
-218 -577 222 0
-218 577 219 0
219 578 -220 0
219 -578 -221 0
-219 -578 221 0
-219 578 220 0
220 579 -168 0
220 -579 -134 0
-220 -579 134 0
-220 579 168 0
221 -579 -139 0
221 579 -136 0
-221 579 136 0
-221 -579 139 0
222 -578 -117 0
222 578 -223 0
-222 578 223 0
-222 -578 117 0
223 -579 -145 0
223 579 -141 0
-223 579 141 0
-223 -579 145 0
224 577 -225 0
-224 -577 0
-224 225 0
225 578 -120 0
-225 -578 0
-225 120 0
226 576 -227 0
226 -576 -233 0
-226 -576 233 0
-226 576 227 0
227 577 -228 0
227 -577 -231 0
-227 -577 231 0
-227 577 228 0
228 578 -229 0
228 -578 -230 0
-228 -578 230 0
-228 578 229 0
229 579 -209 0
229 -579 -175 0
-229 -579 175 0
-229 579 209 0
230 -579 -180 0
230 579 -177 0
-230 579 177 0
-230 -579 180 0
231 -578 -124 0
231 578 -232 0
-231 578 232 0
-231 -578 124 0
232 -579 -186 0
232 579 -182 0
-232 579 182 0
-232 -579 186 0
233 577 -234 0
-233 -577 0
-233 234 0
234 578 -127 0
-234 -578 0
-234 127 0
235 576 -236 0
-235 -576 0
-235 236 0
236 -577 -116 0
236 577 -237 0
-236 577 237 0
-236 -577 116 0
237 578 -221 0
237 -578 -223 0
-237 -578 223 0
-237 578 221 0
238 576 -239 0
-238 -576 0
-238 239 0
239 -577 -123 0
239 577 -240 0
-239 577 240 0
-239 -577 123 0
240 578 -230 0
240 -578 -232 0
-240 -578 232 0
-240 578 230 0
241 -576 -16 0
241 576 -131 0
-241 576 131 0
-241 -576 16 0
242 -576 -53 0
242 576 -172 0
-242 576 172 0
-242 -576 53 0
243 576 -244 0
-243 -576 0
-243 244 0
244 -577 -17 0
244 577 -143 0
-244 577 143 0
-244 -577 17 0
245 576 -246 0
-245 -576 0
-245 246 0
246 -577 -54 0
246 577 -184 0
-246 577 184 0
-246 -577 54 0
-247 248 250 -252 -253 0
-247 -248 -250 -252 -253 0
-247 248 250 252 253 0
-247 -248 -250 252 253 0
247 248 -250 0
247 -248 250 0
247 252 -253 0
247 -252 253 0
248 576 -249 0
-248 -576 0
-248 249 0
249 577 -222 0
249 -577 -225 0
-249 -577 225 0
-249 577 222 0
250 576 -251 0
-250 -576 0
-250 251 0
251 577 -231 0
251 -577 -234 0
-251 -577 234 0
-251 577 231 0
252 576 -224 0
-252 -576 0
-252 224 0
253 576 -233 0
-253 -576 0
-253 233 0
-254 255 270 283 0
254 -283 0
254 -270 0
254 -255 0
255 -256 263 0
255 256 -263 0
-255 256 263 0
-255 -256 -263 0
-256 576 257 0
-256 -576 236 0
256 -576 -236 0
256 576 -257 0
257 577 -258 0
257 -577 -261 0
-257 -577 261 0
-257 577 258 0
258 578 -259 0
258 -578 -260 0
-258 -578 260 0
-258 578 259 0
259 -579 -155 0
259 579 -152 0
-259 579 152 0
-259 -579 155 0
260 -579 -161 0
260 579 -157 0
-260 579 157 0
-260 -579 161 0
261 -578 -220 0
261 578 -262 0
-261 578 262 0
-261 -578 220 0
262 -579 -166 0
262 579 -163 0
-262 579 163 0
-262 -579 166 0
-263 576 264 0
-263 -576 239 0
263 -576 -239 0
263 576 -264 0
264 577 -265 0
264 -577 -268 0
-264 -577 268 0
-264 577 265 0
265 578 -266 0
265 -578 -267 0
-265 -578 267 0
-265 578 266 0
266 -579 -196 0
266 579 -193 0
-266 579 193 0
-266 -579 196 0
267 -579 -202 0
267 579 -198 0
-267 579 198 0
-267 -579 202 0
268 -578 -229 0
268 578 -269 0
-268 578 269 0
-268 -578 229 0
269 -579 -207 0
269 579 -204 0
-269 579 204 0
-269 -579 207 0
270 271 -277 0
-270 -271 0
-270 277 0
-271 576 274 0
-271 -576 272 0
271 -576 -272 0
271 576 -274 0
272 -577 -92 0
272 577 -273 0
-272 577 273 0
-272 -577 92 0
273 578 -138 0
273 -578 -144 0
-273 -578 144 0
-273 578 138 0
274 577 -275 0
274 -577 -276 0
-274 -577 276 0
-274 577 275 0
275 578 -154 0
275 -578 -160 0
-275 -578 160 0
-275 578 154 0
276 -578 -133 0
276 578 -165 0
-276 578 165 0
-276 -578 133 0
-277 576 280 0
-277 -576 278 0
277 -576 -278 0
277 576 -280 0
278 -577 -103 0
278 577 -279 0
-278 577 279 0
-278 -577 103 0
279 578 -179 0
279 -578 -185 0
-279 -578 185 0
-279 578 179 0
280 577 -281 0
280 -577 -282 0
-280 -577 282 0
-280 577 281 0
281 578 -195 0
281 -578 -201 0
-281 -578 201 0
-281 578 195 0
282 -578 -174 0
282 578 -206 0
-282 578 206 0
-282 -578 174 0
-283 -284 -286 0
-283 284 286 0
283 284 -286 0
283 -284 286 0
284 -576 -115 0
284 576 -285 0
-284 576 285 0
-284 -576 115 0
285 -577 -237 0
285 577 -261 0
-285 577 261 0
-285 -577 237 0
286 -576 -122 0
286 576 -287 0
-286 576 287 0
-286 -576 122 0
287 -577 -240 0
287 577 -268 0
-287 577 268 0
-287 -577 240 0
-288 217 289 302 0
-288 -226 289 302 0
288 -302 0
288 -289 0
288 -217 226 0
-289 290 291 300 301 0
289 -291 0
289 -301 0
289 -290 0
289 -300 0
290 -271 277 0
-290 271 0
-290 -277 0
-291 -292 -294 -298 0
-291 292 294 296 0
-291 292 294 -298 0
-291 -292 -294 296 0
291 292 -294 0
291 -292 294 0
291 -296 298 0
292 -576 -244 0
292 576 -293 0
-292 576 293 0
-292 -576 244 0
293 -577 -132 0
293 577 -159 0
-293 577 159 0
-293 -577 132 0
294 -576 -246 0
294 576 -295 0
-294 576 295 0
-294 -576 246 0
295 -577 -173 0
295 577 -200 0
-295 577 200 0
-295 -577 173 0
296 -576 -91 0
296 576 -297 0
-296 576 297 0
-296 -576 91 0
297 -577 -273 0
297 577 -276 0
-297 577 276 0
-297 -577 273 0
298 -576 -102 0
298 576 -299 0
-298 576 299 0
-298 -576 102 0
299 -577 -279 0
299 577 -282 0
-299 577 282 0
-299 -577 279 0
300 296 -298 0
-300 -296 0
-300 298 0
301 576 -272 278 0
301 576 272 -278 0
-301 -576 0
-301 -272 -278 0
-301 272 278 0
-302 -235 303 0
-302 238 303 0
302 -303 0
302 235 -238 0
303 -304 307 0
303 304 -307 0
-303 304 307 0
-303 -304 -307 0
-304 576 305 0
-304 -576 249 0
304 -576 -249 0
304 576 -305 0
305 -577 -219 0
305 577 -306 0
-305 577 306 0
-305 -577 219 0
306 578 -260 0
306 -578 -262 0
-306 -578 262 0
-306 578 260 0
-307 576 308 0
-307 -576 251 0
307 -576 -251 0
307 576 -308 0
308 -577 -228 0
308 577 -309 0
-308 577 309 0
-308 -577 228 0
309 578 -267 0
309 -578 -269 0
-309 -578 269 0
-309 578 267 0
-310 575 311 414 0
-310 -575 411 414 0
310 -414 0
310 -575 -411 0
310 575 -311 0
-311 312 334 357 0
-311 -312 -334 357 0
311 -357 0
311 312 -334 0
311 -312 334 0
-312 576 313 0
-312 -576 257 0
312 -576 -257 0
312 576 -313 0
313 577 -314 0
313 -577 -325 0
-313 -577 325 0
-313 577 314 0
314 578 -315 0
314 -578 -320 0
-314 -578 320 0
-314 578 315 0
315 -579 -318 0
315 579 -316 0
-315 579 316 0
-315 -579 318 0
-316 -43 -317 0
-316 43 317 0
316 43 -317 0
316 -43 317 0
317 -539 571 0
-317 539 0
-317 -571 0
-318 -42 -319 0
-318 42 319 0
318 42 -319 0
318 -42 319 0
319 -538 570 0
-319 538 0
-319 -570 0
320 -579 -323 0
320 579 -321 0
-320 579 321 0
-320 -579 323 0
-321 -41 -322 0
-321 41 322 0
321 41 -322 0
321 -41 322 0
322 -537 569 0
-322 537 0
-322 -569 0
-323 -40 -324 0
-323 40 324 0
323 40 -324 0
323 -40 324 0
324 -536 568 0
-324 536 0
-324 -568 0
325 578 -326 0
325 -578 -331 0
-325 -578 331 0
-325 578 326 0
326 -579 -329 0
326 579 -327 0
-326 579 327 0
-326 -579 329 0
-327 -39 -328 0
-327 39 328 0
327 39 -328 0
327 -39 328 0
328 -535 567 0
-328 535 0
-328 -567 0
-329 -38 -330 0
-329 38 330 0
329 38 -330 0
329 -38 330 0
330 -534 566 0
-330 534 0
-330 -566 0
331 579 -332 0
331 -579 -150 0
-331 -579 150 0
-331 579 332 0
-332 -37 -333 0
-332 37 333 0
332 37 -333 0
332 -37 333 0
333 -533 565 0
-333 533 0
-333 -565 0
-334 -575 238 0
-334 575 335 0
334 -575 -238 0
334 575 -335 0
-335 576 336 0
-335 -576 264 0
335 -576 -264 0
335 576 -336 0
336 577 -337 0
336 -577 -348 0
-336 -577 348 0
-336 577 337 0
337 578 -338 0
337 -578 -343 0
-337 -578 343 0
-337 578 338 0
338 -579 -341 0
338 579 -339 0
-338 579 339 0
-338 -579 341 0
-339 -80 -340 0
-339 80 340 0
339 80 -340 0
339 -80 340 0
340 539 -571 0
340 -539 571 0
-340 -539 -571 0
-340 539 571 0
-341 -79 -342 0
-341 79 342 0
341 79 -342 0
341 -79 342 0
342 538 -570 0
342 -538 570 0
-342 -538 -570 0
-342 538 570 0
343 -579 -346 0
343 579 -344 0
-343 579 344 0
-343 -579 346 0
-344 -78 -345 0
-344 78 345 0
344 78 -345 0
344 -78 345 0
345 537 -569 0
345 -537 569 0
-345 -537 -569 0
-345 537 569 0
-346 -77 -347 0
-346 77 347 0
346 77 -347 0
346 -77 347 0
347 536 -568 0
347 -536 568 0
-347 -536 -568 0
-347 536 568 0
348 578 -349 0
348 -578 -354 0
-348 -578 354 0
-348 578 349 0
349 -579 -352 0
349 579 -350 0
-349 579 350 0
-349 -579 352 0
-350 -76 -351 0
-350 76 351 0
350 76 -351 0
350 -76 351 0
351 535 -567 0
351 -535 567 0
-351 -535 -567 0
-351 535 567 0
-352 -75 -353 0
-352 75 353 0
352 75 -353 0
352 -75 353 0
353 534 -566 0
353 -534 566 0
-353 -534 -566 0
-353 534 566 0
354 579 -355 0
354 -579 -191 0
-354 -579 191 0
-354 579 355 0
-355 -74 -356 0
-355 74 356 0
355 74 -356 0
355 -74 356 0
356 533 -565 0
356 -533 565 0
-356 -533 -565 0
-356 533 565 0
-357 -358 -378 397 404 0
-357 358 378 397 404 0
-357 -358 -378 -397 -404 0
-357 358 378 -397 -404 0
357 -358 378 0
357 358 -378 0
357 -397 404 0
357 397 -404 0
-358 576 359 0
-358 -576 313 0
358 -576 -313 0
358 576 -359 0
359 -577 -360 0
359 577 -372 0
359 577 -371 0
-359 -577 360 0
-359 577 371 372 0
360 578 -361 0
360 -578 -366 0
-360 -578 366 0
-360 578 361 0
361 579 -362 0
361 -579 -364 0
-361 -579 364 0
-361 579 362 0
362 47 -363 0
362 -47 363 0
-362 -47 -363 0
-362 47 363 0
363 -543 575 0
-363 543 0
-363 -575 0
-364 -46 -365 0
-364 46 365 0
364 46 -365 0
364 -46 365 0
365 -542 574 0
-365 542 0
-365 -574 0
366 -579 -369 0
366 579 -367 0
-366 579 367 0
-366 -579 369 0
-367 -45 -368 0
-367 45 368 0
367 45 -368 0
367 -45 368 0
368 -541 573 0
-368 541 0
-368 -573 0
-369 -44 -370 0
-369 44 370 0
369 44 -370 0
369 -44 370 0
370 -540 572 0
-370 540 0
-370 -572 0
371 546 -547 578 0
371 -547 578 579 0
371 -546 547 578 -579 0
-371 547 579 0
-371 546 547 0
-371 -578 0
-371 -546 -547 -579 0
372 -578 -373 0
-372 578 0
-372 373 0
373 -579 -376 0
373 579 -374 0
-373 579 374 0
-373 -579 376 0
-374 -49 -375 0
-374 49 375 0
374 49 -375 0
374 -49 375 0
375 -545 577 0
-375 545 0
-375 -577 0
376 48 -377 0
376 -48 377 0
-376 -48 -377 0
-376 48 377 0
377 -544 576 0
-377 544 0
-377 -576 0
-378 576 379 0
-378 -576 336 0
378 -576 -336 0
378 576 -379 0
379 577 -391 0
379 -577 -380 0
379 577 -371 0
-379 -577 380 0
-379 577 371 391 0
380 578 -381 0
380 -578 -386 0
-380 -578 386 0
-380 578 381 0
381 579 -382 0
381 -579 -384 0
-381 -579 384 0
-381 579 382 0
382 84 -383 0
382 -84 383 0
-382 -84 -383 0
-382 84 383 0
383 543 -575 0
383 -543 575 0
-383 -543 -575 0
-383 543 575 0
384 83 -385 0
384 -83 385 0
-384 -83 -385 0
-384 83 385 0
385 542 -574 0
385 -542 574 0
-385 -542 -574 0
-385 542 574 0
386 -579 -389 0
386 579 -387 0
-386 579 387 0
-386 -579 389 0
-387 -82 -388 0
-387 82 388 0
387 82 -388 0
387 -82 388 0
388 541 -573 0
388 -541 573 0
-388 -541 -573 0
-388 541 573 0
-389 -81 -390 0
-389 81 390 0
389 81 -390 0
389 -81 390 0
390 540 -572 0
390 -540 572 0
-390 -540 -572 0
-390 540 572 0
391 -578 -392 0
-391 578 0
-391 392 0
392 579 -393 0
392 -579 -395 0
-392 -579 395 0
-392 579 393 0
393 86 -394 0
393 -86 394 0
-393 -86 -394 0
-393 86 394 0
394 545 -577 0
394 -545 577 0
-394 -545 -577 0
-394 545 577 0
395 85 -396 0
395 -85 396 0
-395 -85 -396 0
-395 85 396 0
396 544 -576 0
396 -544 576 0
-396 -544 -576 0
-396 544 576 0
-397 576 403 0
-397 -576 398 0
-397 576 -401 0
397 -576 -398 0
397 576 401 -403 0
398 577 -399 0
398 -577 -400 0
-398 -577 400 0
-398 577 399 0
399 578 -320 0
399 -578 -326 0
-399 -578 326 0
-399 578 320 0
400 -578 -259 0
400 578 -331 0
-400 578 331 0
-400 -578 259 0
401 -577 402 0
-401 577 0
-401 -402 0
402 -578 -315 0
402 578 -366 0
-402 578 366 0
-402 -578 315 0
-403 577 -578 361 0
-403 577 578 373 0
403 -577 0
403 -578 -361 0
403 578 -373 0
-404 576 410 0
-404 -576 405 0
-404 576 -408 0
404 -576 -405 0
404 576 408 -410 0
405 577 -406 0
405 -577 -407 0
-405 -577 407 0
-405 577 406 0
406 578 -343 0
406 -578 -349 0
-406 -578 349 0
-406 578 343 0
407 -578 -266 0
407 578 -354 0
-407 578 354 0
-407 -578 266 0
408 -577 409 0
-408 577 0
-408 -409 0
409 -578 -338 0
409 578 -386 0
-409 578 386 0
-409 -578 338 0
-410 577 -578 381 0
-410 577 578 392 0
410 -577 0
410 -578 -381 0
410 578 -392 0
-411 -235 255 -334 412 0
-411 235 255 334 412 0
411 -255 0
411 -235 334 0
411 -412 0
411 235 -334 0
-412 283 301 303 413 0
412 -413 0
412 -303 0
412 -283 0
412 -301 0
-413 271 277 0
-413 -271 -277 0
413 -271 277 0
413 271 -277 0
-414 415 418 421 473 0
-414 -415 -418 421 473 0
414 -473 0
414 -415 418 0
414 -421 0
414 415 -418 0
415 -253 -416 0
415 575 -416 0
-415 416 0
-415 -575 253 0
-416 575 -576 227 0
-416 575 576 417 0
416 -575 0
416 -576 -227 0
416 576 -417 0
417 -577 -309 0
417 577 -407 0
-417 577 407 0
-417 -577 309 0
418 -252 -419 0
418 575 -419 0
-418 419 0
-418 -575 252 0
-419 575 -576 218 0
-419 575 576 420 0
419 -575 0
419 -576 -218 0
419 576 -420 0
420 -577 -306 0
420 577 -400 0
-420 577 400 0
-420 -577 306 0
-421 422 -427 -439 451 0
-421 422 427 439 451 0
421 -451 0
421 427 -439 0
421 -422 0
421 -427 439 0
422 -423 425 0
422 423 -425 0
-422 423 425 0
-422 -423 -425 0
-423 -575 248 0
-423 575 424 0
423 -575 -248 0
423 575 -424 0
-424 576 398 0
-424 -576 305 0
424 -576 -305 0
424 576 -398 0
-425 -575 250 0
-425 575 426 0
425 -575 -250 0
425 575 -426 0
-426 576 405 0
-426 -576 308 0
426 -576 -308 0
426 576 -405 0
-427 -575 296 0
-427 575 428 432 0
427 -575 -296 0
427 575 -432 0
427 575 -428 0
428 -576 -429 0
-428 576 0
-428 429 0
429 -577 -275 0
429 577 -430 0
-429 577 430 0
-429 -577 275 0
430 -578 -149 0
430 578 -431 0
-430 578 431 0
-430 -578 149 0
431 -579 -332 0
431 579 -329 0
-431 579 329 0
-431 -579 332 0
432 576 -577 -436 0
432 576 577 -433 0
-432 -576 0
-432 -577 436 0
-432 577 433 0
433 578 -434 0
433 -578 -435 0
-433 -578 435 0
-433 578 434 0
434 -579 -367 0
434 579 -364 0
-434 579 364 0
-434 -579 367 0
435 579 -369 0
435 -579 -316 0
-435 -579 316 0
-435 579 369 0
436 578 -437 0
436 -578 -438 0
-436 -578 438 0
-436 578 437 0
437 -579 -321 0
437 579 -318 0
-437 579 318 0
-437 -579 321 0
438 -579 -327 0
438 579 -323 0
-438 579 323 0
-438 -579 327 0
-439 -575 298 0
-439 575 440 444 0
439 -575 -298 0
439 575 -444 0
439 575 -440 0
440 -576 -441 0
-440 576 0
-440 441 0
441 -577 -281 0
441 577 -442 0
-441 577 442 0
-441 -577 281 0
442 -578 -190 0
442 578 -443 0
-442 578 443 0
-442 -578 190 0
443 -579 -355 0
443 579 -352 0
-443 579 352 0
-443 -579 355 0
444 576 -577 -448 0
444 576 577 -445 0
-444 -576 0
-444 -577 448 0
-444 577 445 0
445 578 -446 0
445 -578 -447 0
-445 -578 447 0
-445 578 446 0
446 579 -384 0
446 -579 -387 0
-446 -579 387 0
-446 579 384 0
447 579 -389 0
447 -579 -339 0
-447 -579 339 0
-447 579 389 0
448 578 -449 0
448 -578 -450 0
-448 -578 450 0
-448 578 449 0
449 -579 -344 0
449 579 -341 0
-449 579 341 0
-449 -579 344 0
450 -579 -350 0
450 579 -346 0
-450 579 346 0
-450 -579 350 0
451 575 -452 0
451 575 -463 468 0
451 575 463 -468 0
-451 -575 0
-451 452 -463 -468 0
-451 452 463 468 0
-452 -453 -455 457 460 0
-452 453 455 457 460 0
-452 -453 -455 -457 -460 0
-452 453 455 -457 -460 0
452 -453 455 0
452 453 -455 0
452 -457 460 0
452 457 -460 0
-453 576 454 0
-453 -576 274 0
453 -576 -274 0
453 576 -454 0
454 -577 -430 0
454 577 -436 0
-454 577 436 0
-454 -577 430 0
-455 576 456 0
-455 -576 280 0
455 -576 -280 0
455 576 -456 0
456 -577 -442 0
456 577 -448 0
-456 577 448 0
-456 -577 442 0
-457 576 459 0
-457 458 459 0
457 -459 0
457 -576 -458 0
458 -577 -258 0
458 577 -325 0
-458 577 325 0
-458 -577 258 0
459 576 577 -360 0
459 576 -577 -314 0
-459 -576 0
-459 -577 314 0
-459 577 360 0
-460 576 462 0
-460 461 462 0
460 -462 0
460 -576 -461 0
461 -577 -265 0
461 577 -348 0
-461 577 348 0
-461 -577 265 0
462 576 577 -380 0
462 576 -577 -337 0
-462 -576 0
-462 -577 337 0
-462 577 380 0
-463 576 464 0
-463 -576 454 0
463 -576 -454 0
463 576 -464 0
464 -577 -433 0
464 577 -466 0
464 577 -465 0
-464 -577 433 0
-464 577 465 466 0
465 -546 578 579 0
465 578 -579 -374 0
-465 -578 0
-465 546 579 0
-465 -579 374 0
466 -578 -467 0
-466 578 0
-466 467 0
467 -579 -362 0
467 579 -376 0
-467 579 376 0
-467 -579 362 0
-468 576 469 0
-468 -576 456 0
468 -576 -456 0
468 576 -469 0
469 -577 -445 0
469 577 -471 0
469 577 -470 0
-469 -577 445 0
-469 577 470 471 0
470 -546 578 579 0
470 578 -579 -393 0
-470 -578 0
-470 546 579 0
-470 -579 393 0
471 -578 -472 0
-471 578 0
-471 472 0
472 -579 -382 0
472 579 -395 0
-472 579 395 0
-472 -579 382 0
-473 -474 -481 488 493 0
-473 474 481 488 493 0
473 -488 0
473 -474 481 0
473 -493 0
473 474 -481 0
-474 -575 294 0
-474 575 475 0
474 -575 -294 0
474 575 -475 0
-475 576 480 0
-475 -576 476 0
-475 576 -478 0
475 -576 -476 0
475 576 478 -480 0
476 -577 -189 0
476 577 -477 0
-476 577 477 0
-476 -577 189 0
477 -578 -443 0
477 578 -450 0
-477 578 450 0
-477 -578 443 0
478 -577 479 0
-478 577 0
-478 -479 0
479 578 -447 0
479 -578 -449 0
-479 -578 449 0
-479 578 447 0
-480 577 -578 446 0
-480 577 578 472 0
480 -577 0
480 -578 -446 0
480 578 -472 0
-481 -575 292 0
-481 575 482 0
481 -575 -292 0
481 575 -482 0
-482 576 487 0
-482 -576 483 0
-482 576 -485 0
482 -576 -483 0
482 576 485 -487 0
483 -577 -148 0
483 577 -484 0
-483 577 484 0
-483 -577 148 0
484 -578 -431 0
484 578 -438 0
-484 578 438 0
-484 -578 431 0
485 -577 486 0
-485 577 0
-485 -486 0
486 578 -435 0
486 -578 -437 0
-486 -578 437 0
-486 578 435 0
-487 577 -578 434 0
-487 577 578 467 0
487 -577 0
487 -578 -434 0
487 578 -467 0
488 489 -491 0
-488 -489 0
-488 491 0
489 -114 -490 0
489 575 -490 0
-489 490 0
-489 -575 114 0
-490 575 -576 285 0
-490 575 576 458 0
490 -575 0
490 -576 -285 0
490 576 -458 0
491 -121 -492 0
491 575 -492 0
-491 492 0
-491 -575 121 0
-492 575 -576 287 0
-492 575 576 461 0
492 -575 0
492 -576 -287 0
492 576 -461 0
-493 494 507 509 511 0
-493 494 -507 -509 511 0
493 -511 0
493 -507 509 0
493 -494 0
493 507 -509 0
-494 -495 -498 501 504 0
-494 495 498 501 504 0
-494 -495 -498 -501 -504 0
-494 495 498 -501 -504 0
494 -495 498 0
494 495 -498 0
494 -501 504 0
494 501 -504 0
-495 -575 241 0
-495 575 496 497 0
495 -575 -241 0
495 575 -497 0
495 575 -496 0
496 -576 -147 0
-496 576 0
-496 147 0
497 576 577 -486 0
497 576 -577 -484 0
-497 -576 0
-497 -577 484 0
-497 577 486 0
-498 -575 242 0
-498 575 499 500 0
498 -575 -242 0
498 575 -500 0
498 575 -499 0
499 -576 -188 0
-499 576 0
-499 188 0
500 576 577 -479 0
500 576 -577 -477 0
-500 -576 0
-500 -577 477 0
-500 577 479 0
-501 -575 217 0
-501 575 502 503 0
501 -575 -217 0
501 575 -503 0
501 575 -502 0
502 -576 -420 0
-502 576 0
-502 420 0
503 576 577 -402 0
503 576 -577 -399 0
-503 -576 0
-503 -577 399 0
-503 577 402 0
-504 -575 226 0
-504 575 505 506 0
504 -575 -226 0
504 575 -506 0
504 575 -505 0
505 -576 -417 0
-505 576 0
-505 417 0
506 576 577 -409 0
506 576 -577 -406 0
-506 -576 0
-506 -577 406 0
-506 577 409 0
507 -243 -508 0
507 575 -508 0
-507 508 0
-507 -575 243 0
-508 575 -576 293 0
-508 575 576 483 0
508 -575 0
508 -576 -293 0
508 576 -483 0
509 -245 -510 0
509 575 -510 0
-509 510 0
-509 -575 245 0
-510 575 -576 295 0
-510 575 576 476 0
510 -575 0
510 -576 -295 0
510 576 -476 0
-511 489 -512 -514 0
-511 -491 512 514 0
-511 489 512 514 0
-511 -491 -512 -514 0
511 512 -514 0
511 -512 514 0
511 -489 491 0
512 -101 -513 0
512 575 -513 0
-512 513 0
-512 -575 101 0
-513 575 -576 299 0
-513 575 576 441 0
513 -575 0
513 -576 -299 0
513 576 -441 0
514 -90 -515 0
514 575 -515 0
-514 515 0
-514 -575 90 0
-515 575 -576 297 0
-515 575 576 429 0
515 -575 0
515 -576 -297 0
515 576 -429 0
-580 0
2 0

